
Gurobi 9.5.0 (linux64) logging started Sun Jan 16 18:00:38 2022

Set parameter LogFile to value "../results/max3cut_numv8/max3cut_numv8_seed1_rand_p0.4_neg0.4_BQO_log.txt"
Gurobi Optimizer version 9.5.0 build v9.5.0rc5 (linux64)
Thread count: 20 physical cores, 40 logical processors, using up to 10 threads
Optimize a model with 8 rows, 24 columns and 24 nonzeros
Model fingerprint: 0xbe47caa3
Model has 36 quadratic objective terms
Variable types: 0 continuous, 24 integer (24 binary)
Coefficient statistics:
  Matrix range     [1e+00, 1e+00]
  Objective range  [0e+00, 0e+00]
  QObjective range [2e+00, 2e+00]
  Bounds range     [1e+00, 1e+00]
  RHS range        [1e+00, 1e+00]
Found heuristic solution: objective -0.0000000
Presolve removed 1 rows and 3 columns
Presolve time: 0.00s
Presolved: 37 rows, 51 columns, 111 nonzeros
Variable types: 0 continuous, 51 integer (51 binary)

Root relaxation: objective -7.000000e+00, 21 iterations, 0.00 seconds (0.00 work units)

    Nodes    |    Current Node    |     Objective Bounds      |     Work
 Expl Unexpl |  Obj  Depth IntInf | Incumbent    BestBd   Gap | It/Node Time

     0     0    7.00000    0   11   -0.00000    7.00000      -     -    0s
H    0     0                       5.0000000    7.00000  40.0%     -    0s
H    0     0                       6.0000000    7.00000  16.7%     -    0s

Explored 1 nodes (30 simplex iterations) in 0.01 seconds (0.00 work units)
Thread count was 10 (of 40 available processors)

Solution count 3: 6 5 -0 

Optimal solution found (tolerance 0.00e+00)
Best objective 6.000000000000e+00, best bound 6.000000000000e+00, gap 0.0000%
